PointerNetwork/Ptr_Net_TSPTW/benchmark/n20w80/n20w80.002.txt
!! n20w80.002    81.70 415


CUST NO.   XCOORD.   YCOORD.    DEMAND   READY TIME   DUE DATE   SERVICE TIME


    1      16.00      20.00       0.00       0.00     444.00       0.00
    2      17.00      30.00       0.00       0.00      15.00       0.00
    3      34.00       1.00       0.00     345.00     406.00       0.00
    4      42.00       2.00       0.00      22.00     148.00       0.00
    5      33.00      47.00       0.00      95.00     218.00       0.00
    6      35.00       3.00       0.00      81.00     146.00       0.00
    7       8.00       7.00       0.00       0.00      94.00       0.00
    8      49.00      49.00       0.00     206.00     323.00       0.00
    9       3.00      26.00       0.00     275.00     355.00       0.00
   10       3.00      20.00       0.00       0.00      99.00       0.00
   11      48.00      18.00       0.00      38.00     182.00       0.00
   12      46.00      47.00       0.00     159.00     217.00       0.00
   13      18.00      35.00       0.00       0.00      35.00       0.00
   14       6.00      25.00       0.00      23.00      57.00       0.00
   15      40.00      22.00       0.00     148.00     291.00       0.00
   16      27.00      21.00       0.00      54.00     192.00       0.00
   17      16.00      27.00       0.00       0.00      13.00       0.00
   18      28.00       1.00       0.00      67.00     133.00       0.00
   19      16.00      30.00       0.00     139.00     200.00       0.00
   20      34.00      48.00       0.00     133.00     216.00       0.00
   21      44.00      45.00       0.00     327.00     406.00       0.00
  999       0.00       0.00       0.00       0.00       0.00       0.00