PointerNetwork/Ptr_Net_TSPTW/benchmark/n20w80/n20w80.002.txt.solution
1 17 2 13 14 10 7 18 6 4 11 15 16 19 5 20 12 8 9 21 3 
338
